% Generated FlatZinc statistics:
%%%mzn-stat: paths=0
%%%mzn-stat: flatBoolVars=938
%%%mzn-stat: flatIntVars=130
%%%mzn-stat: flatBoolConstraints=290
%%%mzn-stat: flatIntConstraints=1050
%%%mzn-stat: evaluatedReifiedConstraints=74
%%%mzn-stat: evaluatedHalfReifiedConstraints=864
%%%mzn-stat: method="minimize"
%%%mzn-stat: flatTime=0.0949045
%%%mzn-stat-end
end = 112
carga_por_operario = [112, 0, 0]
desbalance = 112
Job 1:  98(op:1) 102(op:1) 103(op:1) 104(op:1) 105(op:1)
Job 2:  50(op:1)  53(op:1)  58(op:1)  63(op:1)  69(op:1)
Job 3:  77(op:1)  81(op:1)  89(op:1)  95(op:1)  97(op:1)
Job 4:  25(op:1)  31(op:1)  33(op:1)  40(op:1)  44(op:1)
Job 5:   0(op:1)   7(op:1)  12(op:1)  18(op:1)  19(op:1)
----------
%%%mzn-stat: initTime=0.00451385
%%%mzn-stat: solveTime=59.9051
%%%mzn-stat: solutions=1
%%%mzn-stat: variables=1069
%%%mzn-stat: propagators=1340
%%%mzn-stat: propagations=910658768
%%%mzn-stat: nodes=9141499
%%%mzn-stat: failures=4570731
%%%mzn-stat: restarts=0
%%%mzn-stat: peakDepth=79
%%%mzn-stat-end
%%%mzn-stat: nSolutions=1
%%%mzn-stat-end
